(set-logic QF_NRA)
(set-info :source |
SMT script generated by Ultimate Automizer [1,2].
Ultimate Automizer is a software verifier for C programs that implements an
automata-based approach [3].
The commands in this SMT scripts are used for a constraint-based synthesis
of invariants [4].

2016-04-30, Matthias Heizmann (heizmann@informatik.uni-freiburg.de)


[1] http://http://ultimate.informatik.uni-freiburg.de/automizer/
[2] Matthias Heizmann, Daniel Dietsch, Marius Greitschus, Jan Leike,
Betim Musa, Claus Schätzle, Andreas Podelski: Ultimate Automizer with
Two-track Proofs - (Competition Contribution). TACAS 2016: 950-953
[3] Matthias Heizmann, Jochen Hoenicke, Andreas Podelski: Software Model
Checking for People Who Love Automata. CAV 2013:36-52
[4] Michael Colon, Sriram Sankaranarayanan, Henny Sipma: Linear Invariant
Generation Using Non-linear Constraint Solving. CAV 2003: 420-432

|)
(set-info :smt-lib-version 2.5)
(set-info :category "industrial")
(set-info :status sat)
(declare-fun liipp_0_c () Real)
(declare-fun liipp_0__SAS09paper_y () Real)
(declare-fun liipp_0__SAS09paper_x () Real)
(declare-fun liipp_1_c () Real)
(declare-fun liipp_1__SAS09paper_y () Real)
(declare-fun liipp_1__SAS09paper_x () Real)
(declare-fun liipp_2_c () Real)
(declare-fun liipp_2__SAS09paper_y () Real)
(declare-fun liipp_2__SAS09paper_x () Real)
(declare-fun liipp_3_c () Real)
(declare-fun liipp_3__SAS09paper_y () Real)
(declare-fun liipp_3__SAS09paper_x () Real)
(declare-fun liipp_4_c () Real)
(declare-fun liipp_4__SAS09paper_y () Real)
(declare-fun liipp_4__SAS09paper_x () Real)
(declare-fun liipp_5_c () Real)
(declare-fun liipp_5__SAS09paper_y () Real)
(declare-fun liipp_5__SAS09paper_x () Real)
(declare-fun liipp_6_c () Real)
(declare-fun liipp_6__SAS09paper_y () Real)
(declare-fun liipp_6__SAS09paper_x () Real)
(declare-fun liipp_7_c () Real)
(declare-fun liipp_7__SAS09paper_y () Real)
(declare-fun liipp_7__SAS09paper_x () Real)
(declare-fun liipp_8_replace_0 () Real)
(declare-fun liipp_8_replace_1 () Real)
(declare-fun liipp_9_replace_0 () Real)
(declare-fun liipp_9_replace_1 () Real)
(declare-fun motzkin_4423_0 () Real)
(declare-fun motzkin_4423_1 () Real)
(declare-fun motzkin_4423_2 () Real)
(declare-fun motzkin_4423_3 () Real)
(declare-fun motzkin_4423_4 () Real)
(declare-fun motzkin_4424_0 () Real)
(declare-fun motzkin_4424_1 () Real)
(declare-fun motzkin_4424_2 () Real)
(declare-fun motzkin_4424_3 () Real)
(declare-fun motzkin_4424_4 () Real)
(assert (and (>= motzkin_4423_0 0.0) (>= motzkin_4423_1 0.0) (>= motzkin_4423_2 0.0) (>= motzkin_4423_3 0.0) (>= motzkin_4423_4 0.0) (= (+ (* motzkin_4423_0 (- 1.0)) motzkin_4423_1 (* motzkin_4423_4 (+ (* (- 1.0) liipp_6__SAS09paper_x) 0.0))) 0.0) (= (+ (* motzkin_4423_2 (- 1.0)) motzkin_4423_3 (* motzkin_4423_4 (+ (* (- 1.0) liipp_6__SAS09paper_y) 0.0))) 0.0) (<= (* motzkin_4423_4 (+ (* (- 1.0) liipp_6_c) 0.0)) 0.0) (or (< (* motzkin_4423_4 (+ (* (- 1.0) liipp_6_c) 0.0)) 0.0) (> 0.0 0.0)) (>= motzkin_4424_0 0.0) (>= motzkin_4424_1 0.0) (>= motzkin_4424_2 0.0) (>= motzkin_4424_3 0.0) (>= motzkin_4424_4 0.0) (= (+ (* motzkin_4424_0 (- 1.0)) motzkin_4424_1 (* motzkin_4424_4 (+ (* (- 1.0) liipp_7__SAS09paper_x) 0.0))) 0.0) (= (+ (* motzkin_4424_2 (- 1.0)) motzkin_4424_3 (* motzkin_4424_4 (+ (* (- 1.0) liipp_7__SAS09paper_y) 0.0))) 0.0) (<= (* motzkin_4424_4 (+ (* (- 1.0) liipp_7_c) 0.0)) 0.0) (or (< 0.0 0.0) (> motzkin_4424_4 0.0))))
(declare-fun liipp_11_replace_0 () Real)
(declare-fun liipp_11_replace_1 () Real)
(declare-fun motzkin_4425_0 () Real)
(declare-fun motzkin_4425_1 () Real)
(declare-fun motzkin_4425_2 () Real)
(declare-fun motzkin_4425_3 () Real)
(declare-fun motzkin_4426_0 () Real)
(declare-fun motzkin_4426_1 () Real)
(declare-fun motzkin_4426_2 () Real)
(declare-fun motzkin_4426_3 () Real)
(assert (and (>= motzkin_4425_0 0.0) (>= motzkin_4425_1 0.0) (>= motzkin_4425_2 0.0) (>= motzkin_4425_3 0.0) (= (+ (* motzkin_4425_1 (+ (* (- 1.0) liipp_2__SAS09paper_y) 0.0)) (* motzkin_4425_2 (+ (* 1.0 liipp_6__SAS09paper_y) 0.0)) (* motzkin_4425_3 (+ (* 1.0 liipp_7__SAS09paper_y) 0.0))) 0.0) (= (+ (* motzkin_4425_1 (+ (* (- 1.0) liipp_2__SAS09paper_x) 0.0)) (* motzkin_4425_2 (+ (* 1.0 liipp_6__SAS09paper_x) 0.0)) (* motzkin_4425_3 (+ (* 1.0 liipp_7__SAS09paper_x) 0.0))) 0.0) (<= (+ (* motzkin_4425_1 (+ (* (- 1.0) liipp_2_c) 0.0)) (* motzkin_4425_2 (+ (* 1.0 liipp_6_c) 0.0)) (* motzkin_4425_3 (+ (* 1.0 liipp_7_c) 0.0))) 0.0) (or (< (+ (* motzkin_4425_1 (+ (* (- 1.0) liipp_2_c) 0.0)) (* motzkin_4425_3 (+ (* 1.0 liipp_7_c) 0.0))) 0.0) (> motzkin_4425_2 0.0)) (>= motzkin_4426_0 0.0) (>= motzkin_4426_1 0.0) (>= motzkin_4426_2 0.0) (>= motzkin_4426_3 0.0) (= (+ (* motzkin_4426_1 (+ (* (- 1.0) liipp_3__SAS09paper_y) 0.0)) (* motzkin_4426_2 (+ (* 1.0 liipp_6__SAS09paper_y) 0.0)) (* motzkin_4426_3 (+ (* 1.0 liipp_7__SAS09paper_y) 0.0))) 0.0) (= (+ (* motzkin_4426_1 (+ (* (- 1.0) liipp_3__SAS09paper_x) 0.0)) (* motzkin_4426_2 (+ (* 1.0 liipp_6__SAS09paper_x) 0.0)) (* motzkin_4426_3 (+ (* 1.0 liipp_7__SAS09paper_x) 0.0))) 0.0) (<= (+ (* motzkin_4426_1 (+ (* (- 1.0) liipp_3_c) 0.0)) (* motzkin_4426_2 (+ (* 1.0 liipp_6_c) 0.0)) (* motzkin_4426_3 (+ (* 1.0 liipp_7_c) 0.0))) 0.0) (or (< (* motzkin_4426_3 (+ (* 1.0 liipp_7_c) 0.0)) 0.0) (> (+ motzkin_4426_1 motzkin_4426_2) 0.0))))
(declare-fun liipp_12_replace_0 () Real)
(declare-fun liipp_12_replace_1 () Real)
(declare-fun motzkin_4427_0 () Real)
(declare-fun motzkin_4427_1 () Real)
(declare-fun motzkin_4427_2 () Real)
(declare-fun motzkin_4427_3 () Real)
(declare-fun motzkin_4428_0 () Real)
(declare-fun motzkin_4428_1 () Real)
(declare-fun motzkin_4428_2 () Real)
(declare-fun motzkin_4428_3 () Real)
(assert (and (>= motzkin_4427_0 0.0) (>= motzkin_4427_1 0.0) (>= motzkin_4427_2 0.0) (>= motzkin_4427_3 0.0) (= (+ (* motzkin_4427_1 (+ (* (- 1.0) liipp_0__SAS09paper_y) 0.0)) (* motzkin_4427_2 (+ (* 1.0 liipp_2__SAS09paper_y) 0.0)) (* motzkin_4427_3 (+ (* 1.0 liipp_3__SAS09paper_y) 0.0))) 0.0) (= (+ (* motzkin_4427_1 (+ (* (- 1.0) liipp_0__SAS09paper_x) 0.0)) (* motzkin_4427_2 (+ (* 1.0 liipp_2__SAS09paper_x) 0.0)) (* motzkin_4427_3 (+ (* 1.0 liipp_3__SAS09paper_x) 0.0))) 0.0) (<= (+ (* motzkin_4427_1 (+ (* (- 1.0) liipp_0_c) 0.0)) (* motzkin_4427_2 (+ (* 1.0 liipp_2_c) 0.0)) (* motzkin_4427_3 (+ (* 1.0 liipp_3_c) 0.0))) 0.0) (or (< (+ (* motzkin_4427_1 (+ (* (- 1.0) liipp_0_c) 0.0)) (* motzkin_4427_3 (+ (* 1.0 liipp_3_c) 0.0))) 0.0) (> motzkin_4427_2 0.0)) (>= motzkin_4428_0 0.0) (>= motzkin_4428_1 0.0) (>= motzkin_4428_2 0.0) (>= motzkin_4428_3 0.0) (= (+ (* motzkin_4428_1 (+ (* (- 1.0) liipp_1__SAS09paper_y) 0.0)) (* motzkin_4428_2 (+ (* 1.0 liipp_2__SAS09paper_y) 0.0)) (* motzkin_4428_3 (+ (* 1.0 liipp_3__SAS09paper_y) 0.0))) 0.0) (= (+ (* motzkin_4428_1 (+ (* (- 1.0) liipp_1__SAS09paper_x) 0.0)) (* motzkin_4428_2 (+ (* 1.0 liipp_2__SAS09paper_x) 0.0)) (* motzkin_4428_3 (+ (* 1.0 liipp_3__SAS09paper_x) 0.0))) 0.0) (<= (+ (* motzkin_4428_1 (+ (* (- 1.0) liipp_1_c) 0.0)) (* motzkin_4428_2 (+ (* 1.0 liipp_2_c) 0.0)) (* motzkin_4428_3 (+ (* 1.0 liipp_3_c) 0.0))) 0.0) (or (< (* motzkin_4428_3 (+ (* 1.0 liipp_3_c) 0.0)) 0.0) (> (+ motzkin_4428_1 motzkin_4428_2) 0.0))))
(declare-fun liipp_13_replace_0 () Real)
(declare-fun motzkin_4429_0 () Real)
(declare-fun motzkin_4429_1 () Real)
(declare-fun motzkin_4429_2 () Real)
(declare-fun motzkin_4429_3 () Real)
(declare-fun motzkin_4430_0 () Real)
(declare-fun motzkin_4430_1 () Real)
(declare-fun motzkin_4430_2 () Real)
(declare-fun motzkin_4430_3 () Real)
(declare-fun motzkin_4431_0 () Real)
(declare-fun motzkin_4431_1 () Real)
(declare-fun motzkin_4431_2 () Real)
(declare-fun motzkin_4431_3 () Real)
(declare-fun motzkin_4432_0 () Real)
(declare-fun motzkin_4432_1 () Real)
(declare-fun motzkin_4432_2 () Real)
(declare-fun motzkin_4432_3 () Real)
(assert (and (>= motzkin_4429_0 0.0) (>= motzkin_4429_1 0.0) (>= motzkin_4429_2 0.0) (>= motzkin_4429_3 0.0) (= (+ motzkin_4429_0 (* motzkin_4429_1 (+ (* (- 1.0) liipp_4__SAS09paper_x) 0.0)) (* motzkin_4429_2 (+ (* 1.0 liipp_0__SAS09paper_x) 0.0)) (* motzkin_4429_3 (+ (* 1.0 liipp_1__SAS09paper_x) 0.0))) 0.0) (= (+ (* motzkin_4429_1 (+ (* (- 1.0) liipp_4__SAS09paper_y) 0.0)) (* motzkin_4429_2 (+ (* 1.0 liipp_0__SAS09paper_y) 0.0)) (* motzkin_4429_3 (+ (* 1.0 liipp_1__SAS09paper_y) 0.0))) 0.0) (<= (+ (* motzkin_4429_1 (+ (* (- 1.0) liipp_4_c) 0.0)) (* motzkin_4429_2 (+ (* 1.0 liipp_0_c) 0.0)) (* motzkin_4429_3 (+ (* 1.0 liipp_1_c) 0.0))) 0.0) (or (< (+ (* motzkin_4429_1 (+ (* (- 1.0) liipp_4_c) 0.0)) (* motzkin_4429_3 (+ (* 1.0 liipp_1_c) 0.0))) 0.0) (> motzkin_4429_2 0.0)) (>= motzkin_4430_0 0.0) (>= motzkin_4430_1 0.0) (>= motzkin_4430_2 0.0) (>= motzkin_4430_3 0.0) (= (+ motzkin_4430_0 (* motzkin_4430_1 (+ (* (- 1.0) liipp_5__SAS09paper_x) 0.0)) (* motzkin_4430_2 (+ (* 1.0 liipp_0__SAS09paper_x) 0.0)) (* motzkin_4430_3 (+ (* 1.0 liipp_1__SAS09paper_x) 0.0))) 0.0) (= (+ (* motzkin_4430_1 (+ (* (- 1.0) liipp_5__SAS09paper_y) 0.0)) (* motzkin_4430_2 (+ (* 1.0 liipp_0__SAS09paper_y) 0.0)) (* motzkin_4430_3 (+ (* 1.0 liipp_1__SAS09paper_y) 0.0))) 0.0) (<= (+ (* motzkin_4430_1 (+ (* (- 1.0) liipp_5_c) 0.0)) (* motzkin_4430_2 (+ (* 1.0 liipp_0_c) 0.0)) (* motzkin_4430_3 (+ (* 1.0 liipp_1_c) 0.0))) 0.0) (or (< (* motzkin_4430_3 (+ (* 1.0 liipp_1_c) 0.0)) 0.0) (> (+ motzkin_4430_1 motzkin_4430_2) 0.0)) (>= motzkin_4431_0 0.0) (>= motzkin_4431_1 0.0) (>= motzkin_4431_2 0.0) (>= motzkin_4431_3 0.0) (= (+ (* motzkin_4431_0 (- 1.0)) (* motzkin_4431_1 (+ (* (- 1.0) liipp_4__SAS09paper_x) 0.0)) (* motzkin_4431_2 (+ (* 1.0 liipp_0__SAS09paper_x) 0.0)) (* motzkin_4431_3 (+ (* 1.0 liipp_1__SAS09paper_x) 0.0))) 0.0) (= (+ (* motzkin_4431_1 (+ (* (- 1.0) liipp_4__SAS09paper_y) 0.0)) (* motzkin_4431_2 (+ (* 1.0 liipp_0__SAS09paper_y) 0.0)) (* motzkin_4431_3 (+ (* 1.0 liipp_1__SAS09paper_y) 0.0))) 0.0) (<= (+ (* motzkin_4431_0 (- 2.0)) (* motzkin_4431_1 (+ (* (- 1.0) liipp_4_c) 0.0)) (* motzkin_4431_2 (+ (* 1.0 liipp_0_c) 0.0)) (* motzkin_4431_3 (+ (* 1.0 liipp_1_c) 0.0))) 0.0) (or (< (+ (* motzkin_4431_0 (- 2.0)) (* motzkin_4431_1 (+ (* (- 1.0) liipp_4_c) 0.0)) (* motzkin_4431_3 (+ (* 1.0 liipp_1_c) 0.0))) 0.0) (> motzkin_4431_2 0.0)) (>= motzkin_4432_0 0.0) (>= motzkin_4432_1 0.0) (>= motzkin_4432_2 0.0) (>= motzkin_4432_3 0.0) (= (+ (* motzkin_4432_0 (- 1.0)) (* motzkin_4432_1 (+ (* (- 1.0) liipp_5__SAS09paper_x) 0.0)) (* motzkin_4432_2 (+ (* 1.0 liipp_0__SAS09paper_x) 0.0)) (* motzkin_4432_3 (+ (* 1.0 liipp_1__SAS09paper_x) 0.0))) 0.0) (= (+ (* motzkin_4432_1 (+ (* (- 1.0) liipp_5__SAS09paper_y) 0.0)) (* motzkin_4432_2 (+ (* 1.0 liipp_0__SAS09paper_y) 0.0)) (* motzkin_4432_3 (+ (* 1.0 liipp_1__SAS09paper_y) 0.0))) 0.0) (<= (+ (* motzkin_4432_0 (- 2.0)) (* motzkin_4432_1 (+ (* (- 1.0) liipp_5_c) 0.0)) (* motzkin_4432_2 (+ (* 1.0 liipp_0_c) 0.0)) (* motzkin_4432_3 (+ (* 1.0 liipp_1_c) 0.0))) 0.0) (or (< (+ (* motzkin_4432_0 (- 2.0)) (* motzkin_4432_3 (+ (* 1.0 liipp_1_c) 0.0))) 0.0) (> (+ motzkin_4432_1 motzkin_4432_2) 0.0))))
(declare-fun liipp_14_replace_0 () Real)
(declare-fun motzkin_4433_0 () Real)
(declare-fun motzkin_4433_1 () Real)
(declare-fun motzkin_4433_2 () Real)
(declare-fun motzkin_4433_3 () Real)
(assert (and (>= motzkin_4433_0 0.0) (>= motzkin_4433_1 0.0) (>= motzkin_4433_2 0.0) (>= motzkin_4433_3 0.0) (= (+ (* motzkin_4433_0 (- 1.0)) motzkin_4433_1 (* motzkin_4433_2 (+ (* 1.0 liipp_4__SAS09paper_y) 0.0)) (* motzkin_4433_3 (+ (* 1.0 liipp_5__SAS09paper_y) 0.0))) 0.0) (= (+ (* motzkin_4433_2 (+ (* 1.0 liipp_4__SAS09paper_x) 0.0)) (* motzkin_4433_3 (+ (* 1.0 liipp_5__SAS09paper_x) 0.0))) 0.0) (<= (+ (* motzkin_4433_0 (- 1.0)) motzkin_4433_1 (* motzkin_4433_2 (+ (* 1.0 liipp_4_c) 0.0)) (* motzkin_4433_3 (+ (* 1.0 liipp_5_c) 0.0))) 0.0) (or (< (+ (* motzkin_4433_0 (- 1.0)) motzkin_4433_1 (* motzkin_4433_3 (+ (* 1.0 liipp_5_c) 0.0))) 0.0) (> motzkin_4433_2 0.0))))
(check-sat)
(exit)
